RT is False
Default write of storage_offers_DA.csv just to have a file (but constraint should be inactive)
Reading model...
...model read.
creating competitive generators file...
...competitive generators recorded.
Loading data...
.. day-ahead data read.
Compiling instance...
...instance created.
Creating Offer Mitigation (model will solve as dispatch if TRUE)...
NOTE: storage offers will not be mitigated
...storage offer mitigation file created
Solving...

Welcome to IBM(R) ILOG(R) CPLEX(R) Interactive Optimizer 12.9.0.0
  with Simplex, Mixed Integer & Barrier Optimizers
5725-A06 5725-A29 5724-Y48 5724-Y49 5724-Y54 5724-Y55 5655-Y21
Copyright IBM Corp. 1988, 2019.  All Rights Reserved.

Type 'help' for a list of available commands.
Type 'help' followed by a command name for more
information on commands.

CPLEX> Logfile 'cplex.log' closed.
Logfile 'C:\Users\llavin\Desktop\test826\logs\tmp0qv6btmy.cplex.log' open.
CPLEX> New value for parallel optimization mode: -1
CPLEX> New value for mixed integer optimality gap tolerance: 0.001
CPLEX> New value for feasibility tolerance: 1e-09
CPLEX> New value for deterministic time limit in ticks: 150000
CPLEX> Problem 'C:\Users\llavin\Desktop\test826\logs\tmp6_anf7ap.pyomo.lp' read.
Read time = 0.05 sec. (3.04 ticks)
CPLEX> Problem name         : C:\Users\llavin\Desktop\test826\logs\tmp6_anf7ap.pyomo.lp
Objective sense      : Minimize
Variables            :   26081  [Nneg: 1,  Box: 21616,  Free: 4464]
Objective nonzeros   :    2496
Linear constraints   :   27515  [Less: 14006,  Greater: 4416,  Equal: 9093]
  Nonzeros           :   89219
  RHS nonzeros       :   12240

Variables            : Min LB: -5000.000        Max UB: 1000000.       
Objective nonzeros   : Min   : 15.73158         Max   : 124.0997       
Linear constraints   :
  Nonzeros           : Min   : 0.8500000        Max   : 3000.000       
  RHS nonzeros       : Min   : 0.1000000        Max   : 5000.000       
CPLEX> CPXPARAM_Parallel                                -1
CPXPARAM_Simplex_Tolerances_Feasibility          1.0000000000000001e-09
CPXPARAM_DetTimeLimit                            150000
CPXPARAM_MIP_Tolerances_MIPGap                   0.001
Parallel mode: opportunistic, using up to 32 threads for concurrent optimization.
Tried aggregator 1 time.
LP Presolve eliminated 21379 rows and 15520 columns.
Aggregator did 776 substitutions.
Reduced LP has 5360 rows, 9785 columns, and 31616 nonzeros.
Presolve time = 0.05 sec. (30.34 ticks)
Symmetry aggregator did 5561 additional substitutions.
Initializing dual steep norms . . .

Iteration log . . .
Iteration:     1   Dual objective     =             0.000000
Perturbation started.
Iteration:   101   Dual objective     =             0.000000
Iteration:   337   Dual objective     =            49.326075
Iteration:   546   Dual objective     =            64.484818
Iteration:   768   Dual objective     =            65.497801
Iteration:   956   Dual objective     =        138794.871011
Iteration:  1127   Dual objective     =        175010.565218
Iteration:  1403   Dual objective     =        175671.283173
Removing perturbation.
Iteration:  1442   Dual objective     =        175605.741990
Iteration:  1444   Dual objective     =        175605.741990

Dual crossover.
  Dual:  Fixing 8 variables.
        7 DMoves:  Infeasibility  1.95399252e-13  Objective  1.75605742e+05
        0 DMoves:  Infeasibility  3.55271368e-15  Objective  1.75605742e+05
  Dual:  Pushed 0, exchanged 8.
  Primal:  Fixing 4 variables.
        3 PMoves:  Infeasibility  2.34649633e-10  Objective  1.75605742e+05
        0 PMoves:  Infeasibility  2.34649633e-10  Objective  1.75605742e+05
  Primal:  Pushed 4, exchanged 0.
Iteration:  1445   Dual objective     =        175605.741990
Using devex.

Iteration log . . .
Iteration:     1    Infeasibility =             0.000000
Iteration:     9    Infeasibility =             0.000000
Iteration:    12    Infeasibility =             0.000000

Primal simplex solved model.


Maximum bound infeasibility = 4.02797e-08.

Primal simplex - Optimal:  Objective =  1.7560574199e+05
Solution time =    0.20 sec.  Iterations = 2496 (1830)
Deterministic time = 124.79 ticks  (614.74 ticks/sec)

CPLEX> Solution written to file 'C:\Users\llavin\Desktop\test826\logs\tmp5wvqbkrd.cplex.sol'.
CPLEX> Exporting results... 
